0 0 0 0
0 1 0 0
0 2 1 0
0 3 1 0
0 4 0 4
0 5 2 5
0 6 2 10
0 7 0 5
0 8 2 8
0 9 0 8
0 10 0 5
0 11 0 12
0 12 0 8
0 13 0 13
0 14 0 25
0 15 0 13
0 16 1 14
0 17 0 14
0 18 1 15
0 19 0 18
0 20 1 19
0 21 0 18
0 22 0 19
0 23 0 22
0 24 0 26
0 25 0 26
0 26 0 23
0 27 0 25
0 28 0 27
0 29 0 28
0 30 0 27
0 31 0 29
